experiments/knapsack_bounded/knapsack_bounded_5_8.mps.log
Algorithm statistics:
zero_reductions => 149
max_basis_size => 75
queued_pairs => 0
built_pairs => 483
reduced_pairs => 226
eliminated_by_truncation => 7
removed_by_autoreduction => 0
eliminated_by_gcd => 2292
time => 0.00438769
memory => 0.0013772770762443542
4ti2 results
4ti2 time => 0.015782608
